11 9 3.08 1 4 2 8 8199 4103
3 3 0 2 3 3 1 1 2
1 90
1 6
2 6
3 8
4 7
1 170
2 1470
1 1 0 550
2 2 0 550
3 2 0 530
4 2 0 550
5 2 0 580
6 2 0 590
7 2 0 580
8 2 0 520
0 1 1 130 8 1 2 3 17 1 4 2 16 1 2 4 4 2 10 1 4 3 19 1 3 4 17 1 3 1 17 1 2 2 2 2 19 1 2 3 9 1 1 1 3 2 7 1 4 3 15 1 1 1 11 1 2 3 3 2 20 1 1 3 6 1 1 1 16 1 1 4 2 2 19 1 5 3 19 1 4 4 3 2 14 1 3 3 20 1 3 1 14 1 1 4 3 1 16 1 3 2 16 1 3 3 15 1 5 
0 1 1 90 8 1 3 3 12 1 2 2 10 1 4 1 20 1 2 3 4 2 5 1 1 1 5 1 1 3 5 1 3 4 19 1 2 4 4 2 19 1 5 3 20 1 2 1 11 1 5 4 18 1 4 2 4 2 16 1 5 1 11 1 1 3 11 1 3 4 6 1 5 3 4 3 17 1 2 4 13 1 5 1 16 1 2 2 8 1 2 3 3 1 16 1 5 2 6 1 4 3 7 1 2 2 2 1 16 1 2 2 8 1 4 2 4 6 20 1 2 3 8 1 4 7 10 1 4 4 9 1 2 
0 1 1 170 9 4 4 1 8 1 1 3 5 1 2 2 14 1 1 4 15 1 5 3 4 2 19 1 1 1 10 1 4 3 9 1 1 4 5 1 3 3 3 1 11 1 1 2 7 1 5 3 13 1 2 2 4 2 11 1 4 1 15 1 3 3 8 1 4 4 16 1 4 2 4 1 13 1 4 2 6 1 5 3 9 1 2 4 10 1 5 1 3 2 13 1 3 1 11 1 4 3 16 1 1 4 3 6 19 1 3 1 17 1 3 2 16 1 1 3 4 1 12 1 1 2 11 1 2 3 19 1 5 4 18 1 1 4 3 3 7 1 4 1 17 1 2 2 7 1 5 
0 1 1 160 10 3 2 1 18 1 5 2 11 1 4 1 2 1 11 1 4 2 9 1 4 4 3 2 11 1 5 1 9 1 2 3 6 1 2 3 2 3 14 1 3 1 19 1 1 1 2 3 12 1 3 1 16 1 3 1 3 6 14 1 5 2 6 1 5 1 19 1 4 1 3 2 16 1 4 3 12 1 1 5 8 1 2 1 2 2 7 1 4 1 18 1 4 3 3 2 9 1 4 3 10 1 2 1 8 1 4 1 2 5 20 1 3 2 17 1 4 
1 1 140 7 2 120 3 100 4 130 5 170 6 140 7 180 8 80 12 1 4 3 20 1 5 4 9 1 3 1 20 1 4 2 6 1 3 3 4 1 9 1 1 2 10 1 5 3 15 1 4 4 20 1 1 4 3 3 9 1 1 2 16 1 1 1 7 1 3 3 2 2 7 1 4 1 8 1 1 4 4 2 10 1 1 3 9 1 3 4 10 1 2 1 14 1 4 2 3 2 6 1 4 1 9 1 2 3 5 1 4 3 3 2 15 1 2 1 10 1 4 3 7 1 4 1 4 3 18 1 4 1 7 1 2 2 6 1 3 4 15 1 4 3 2 2 9 1 3 6 5 1 1 3 3 1 10 1 1 2 8 1 5 3 16 1 4 3 3 1 14 1 4 2 18 1 1 3 10 1 5 2 3 1 16 1 2 2 10 1 5 3 7 1 5 
1 1 160 7 2 70 3 130 4 140 5 200 6 160 7 140 8 190 9 2 4 2 17 1 3 3 15 1 2 4 11 1 2 1 10 1 2 4 3 3 20 1 5 1 16 1 5 2 18 1 3 4 2 2 17 1 1 1 16 1 1 3 3 1 9 1 2 2 18 1 3 3 12 1 3 4 4 3 15 1 5 1 7 1 1 4 10 1 3 2 7 1 2 3 2 1 20 1 1 2 17 1 3 1 2 5 5 1 2 3 18 1 5 3 2 1 16 1 3 3 18 1 1 3 4 1 5 1 5 2 15 1 5 3 6 1 5 4 11 1 3 
1 1 110 7 2 150 3 130 4 140 5 90 6 160 7 130 8 100 10 3 3 1 12 1 4 2 15 1 4 3 13 1 2 3 3 1 18 1 5 3 11 1 1 2 12 1 5 4 3 3 6 1 1 2 10 1 2 1 14 1 5 2 4 2 20 1 3 1 17 1 3 3 16 1 1 4 10 1 1 3 3 5 6 1 4 1 18 1 1 2 14 1 3 2 3 3 16 1 3 2 16 1 4 1 15 1 2 4 2 1 16 1 4 5 16 1 3 2 4 2 11 1 2 1 10 1 4 3 20 1 2 4 20 1 2 2 4 2 20 1 1 3 18 1 3 1 18 1 1 4 16 1 1 2 3 2 20 1 4 1 18 1 4 3 9 1 2 
1 1 140 7 2 210 3 170 4 140 5 120 6 130 7 130 8 150 8 4 3 2 17 1 4 1 17 1 3 3 5 1 1 2 2 1 12 1 3 2 18 1 5 4 4 2 6 1 5 1 18 1 4 3 8 1 4 4 20 1 5 1 3 3 19 1 3 4 17 1 2 2 16 1 4 3 2 2 10 1 2 1 6 1 1 1 3 2 19 1 1 3 11 1 5 1 18 1 1 1 3 3 8 1 5 2 11 1 1 4 6 1 3 4 3 2 9 1 2 3 17 1 3 4 18 1 1 
7 2 120 3 120 4 130 5 160 6 160 7 230 8 220 0 8 4 3 1 14 1 1 2 11 1 2 3 5 1 1 3 4 1 6 1 1 2 14 1 1 3 16 1 2 4 12 1 4 4 3 1 13 1 1 2 10 1 2 3 15 1 5 4 2 1 8 1 2 2 9 1 5 2 2 2 14 1 2 1 9 1 4 2 4 2 6 1 5 1 8 1 3 3 9 1 2 4 19 1 4 4 3 1 10 1 5 2 6 1 3 3 11 1 2 2 3 1 11 1 2 3 18 1 3 2 19 1 4 
7 2 240 3 290 4 140 5 250 6 230 7 180 8 140 0 9 2 3 2 16 1 5 1 10 1 4 3 10 1 1 1 3 2 9 1 5 1 11 1 1 5 5 1 3 3 2 2 6 1 2 3 5 1 3 4 3 2 13 1 5 3 8 1 3 4 18 1 3 3 4 1 8 1 3 2 20 1 3 3 10 1 2 4 6 1 1 3 4 1 17 1 2 2 11 1 5 3 5 1 5 4 16 1 4 1 4 3 9 1 2 2 10 1 3 4 5 1 5 1 16 1 4 3 3 2 11 1 5 3 20 1 1 1 5 1 3 1 3 2 9 1 5 3 20 1 4 1 8 1 2 
7 2 190 3 120 4 280 5 170 6 200 7 170 8 160 0 8 3 2 1 7 1 3 3 10 1 4 4 3 2 18 1 5 3 20 1 2 1 5 1 1 1 4 2 11 1 2 3 19 1 5 4 11 1 2 1 17 1 3 3 4 2 11 1 3 1 10 1 5 3 20 1 5 4 17 1 3 2 4 1 16 1 4 3 12 1 5 2 20 1 1 4 14 1 3 1 4 3 5 1 3 1 5 1 4 2 14 1 4 4 20 1 5 2 2 1 19 1 5 2 16 1 2 1 4 2 20 1 5 1 12 1 1 3 9 1 1 4 8 1 3 
